&control
   prefix = 'mat-5'
   pseudo_dir = '../pp'
   calculation = 'bands'
/
&system
   ecutwfc = 75
   ibrav = 0
   nat = 2
   ntyp = 2
   nbnd = 8
   occupations = 'smearing'
   degauss = 1e-08
/
&electrons
   electron_maxstep = 300
   conv_thr = 1e-10
   mixing_mode = 'plain'
   mixing_beta = 0.7
   mixing_ndim = 8
   diagonalization = 'david'
   diago_david_ndim = 4
   diago_full_acc = .true.
/
CELL_PARAMETERS angstrom
   2.504 0.0 0.0
   -1.252 2.16852761 0.0
   0.0 0.0 20.0
ATOMIC_SPECIES 
   B 10.811 'B.upf'
   N 14.0067 'N.upf'
ATOMIC_POSITIONS crystal
   B -0.33333333333333337 0.3333333333333333 0.5
   N 0.3333333333333333 -0.33333333333333337 0.5
K_POINTS crystal
   21
   0.001 0.0 0.0 1.0
   0.001 0.166666667 0.0 2.0
   0.001 0.333333333 0.0 2.0
   0.001 0.5 0.0 2.0
   0.001 0.666666667 0.0 2.0
   0.001 0.833333333 0.0 2.0
   0.167666667 0.0 0.0 1.0
   0.167666667 0.166666667 0.0 2.0
   0.167666667 0.333333333 0.0 2.0
   0.167666667 0.5 0.0 2.0
   0.334333333 0.0 0.0 1.0
   0.334333333 0.166666667 0.0 2.0
   0.334333333 0.333333333 0.0 2.0
   0.501 0.0 0.0 1.0
   0.501 0.166666667 0.0 2.0
   0.667666667 0.0 0.0 1.0
   0.667666667 0.166666667 0.0 2.0
   0.834333333 0.0 0.0 1.0
   0.834333333 0.333333333 0.0 2.0
   0.834333333 0.5 0.0 2.0
   0.834333333 0.666666667 0.0 2.0
