&bands
  prefix = "mat-5",
  outdir = "./",
  filband = "bands.dat",
  lsym = .false.,
/
